c NETGEN flow network generator (C version)
c  Problem  1 input parameters
c  ---------------------------
c   Random seed:           706541264
c   Number of nodes:              16
c   Source nodes:                  1
c   Sink nodes:                    1
c   Number of arcs:              100
c   Minimum arc cost:              1
c   Maximum arc cost:             22
c   Total supply:                689
c   Transshipment -
c     Sources:                     0
c     Sinks:                       0
c   Skeleton arcs -
c     With max cost:               0%
c     Capacitated:               100%
c   Minimum arc capacity:         55
c   Maximum arc capacity:        264
c
c  *** Minimum cost flow ***
c
p min 16 100
n 1 369
n 16 -369
a 1 13 0 369 20
a 1 14 0 221 22
a 1 8 0 176 6
a 1 6 0 200 15
a 1 2 0 211 18
a 1 15 0 189 7
a 1 12 0 250 8
a 2 3 0 369 22
a 2 14 0 190 21
a 2 15 0 149 8
a 2 10 0 97 6
a 2 11 0 232 14
a 2 9 0 81 16
a 3 7 0 369 19
a 3 15 0 229 3
a 3 13 0 163 16
a 3 5 0 253 22
a 3 9 0 127 16
a 3 4 0 243 7
a 4 11 0 369 18
a 4 3 0 90 3
a 5 10 0 369 5
a 5 2 0 244 8
a 5 14 0 93 2
a 5 8 0 138 18
a 5 9 0 138 7
a 5 11 0 65 1
a 5 16 0 116 2
a 5 13 0 183 11
a 5 15 0 70 1
a 5 6 0 73 7
a 5 4 0 258 1
a 5 12 0 183 4
a 5 3 0 60 6
a 6 4 0 369 19
a 6 8 0 134 6
a 6 12 0 90 2
a 6 16 0 192 10
a 6 2 0 70 5
a 6 9 0 63 2
a 7 9 0 369 10
a 7 14 0 159 20
a 7 10 0 254 20
a 7 11 0 250 5
a 8 5 0 369 8
a 8 7 0 59 1
a 8 6 0 224 6
a 9 16 0 369 16
a 9 8 0 192 1
a 9 5 0 62 18
a 9 15 0 91 13
a 10 14 0 369 8
a 10 15 0 57 12
a 10 6 0 136 4
a 10 2 0 107 21
a 10 16 0 262 9
a 10 4 0 71 15
a 10 13 0 204 18
a 10 3 0 127 20
a 10 7 0 258 18
a 10 5 0 81 20
a 10 11 0 124 16
a 10 9 0 176 7
a 10 12 0 59 19
a 10 8 0 198 5
a 10 0 0 118 8
a 11 12 0 369 11
a 11 13 0 154 19
a 12 8 0 369 11
a 12 1 0 369 16
a 12 3 0 249 1
a 13 15 0 369 7
a 13 5 0 243 18
a 13 14 0 207 18
a 13 8 0 95 14
a 13 6 0 225 12
a 13 10 0 230 1
a 13 3 0 84 2
a 13 9 0 71 10
a 13 4 0 261 19
a 13 2 0 101 20
a 13 7 0 193 3
a 13 12 0 79 20
a 13 16 0 113 14
a 13 11 0 219 22
a 13 0 0 258 16
a 13 0 0 206 15
a 14 2 0 369 1
a 14 5 0 253 3
a 14 11 0 90 1
a 14 10 0 181 10
a 14 4 0 229 2
a 15 6 0 369 5
a 15 11 0 239 17
a 15 5 0 140 18
a 15 4 0 176 1
a 15 8 0 165 2
a 15 16 0 124 17
a 15 14 0 168 5
a 15 7 0 246 3
